NAME: tsp25_8
COMMENT: 25-tsp problem (Padberg/Rinaldi)
TYPE: TSP
DIMENSION: 25
EDGE_WEIGHT_TYPE : EUC_2D
NODE_COORD_SECTION
1 14 7
2 4 23
3 26 20
4 29 2
5 20 28
6 12 17
7 36 13
8 37 39
9 4 6
10 32 2
11 30 21
12 39 27
13 37 21
14 31 30
15 6 2
16 6 2
17 5 11
18 9 3
19 16 3
20 38 33
21 17 31
22 22 2
23 21 27
24 29 6
25 31 31
